60
95
94
12
25
64
55
29
16
89
96
3
21
54
48
87
45
33
70
61
8
39
35
24
13
76
41
67
93
84
47
36
74
4
1
75
10
34
31
38
78
72
23
52
58
7
81
56
26
92
99
63
50
43
59
9
83
14
32
91
65
71
15
30
46
42
27
79
90
85
82
68
40
44
19
11
80
66
86
51
100
22
20
18
5
37
28
62
57
2
53
69
88
17
77
97
98
6
73
49
